\ SCIP STATISTICS
\   Problem name     : neos-2657525-crna
\   Variables        : 524 (146 binary, 378 integer, 0 implicit integer, 0 continuous)
\   Constraints      : 342
Minimize
 Obj: +0.0010404 C0524 +0.0059406 C0507 +0.0056577 C0506 +0.0053882 C0505 +0.0051316 C0504 +0.0048872 C0503
      +0.0046544 C0502 +0.0044327 C0501 +0.0042216 C0500 +0.0040205 C0499 +0.003829 C0498 +0.0036466 C0497
      +0.0034729 C0496 +0.0033075 C0495 +0.00315 C0494 +0.003 C0493 +0.0062377 C0508 +0.0009436 C0522
      +0.0008986 C0521 +0.0008558 C0520 +0.000815 C0519 +0.0007761 C0518 +0.0007391 C0517 +0.0007039 C0516
      +0.0006703 C0515 +0.0006383 C0514 +0.0006079 C0513 +0.0005789 C0512 +0.0005513 C0511 +0.000525 C0510
      +0.0005 C0509 +0.0009908 C0523
Subject to
 R0001: +0.165 C0001 +0.19965 C0003 +0.2415765 C0007 +0.08 C0013 +0.088 C0015 +0.0968 C0018 +0.10648 C0022
  +0.117128 C0027 +0.1288408 C0033 +0.14172488 C0040 -1.6 C0048 -1.156 C0050 -0.83521 C0054 +1 C0098 +0.5 C0100
  +0.4 C0115 +0.15 C0130 +0.1815 C0159 +0.219615 C0186 +0.26573415 C0211 -1.36 C0308 -0.9826 C0337 -0.7099285 C0364
  -0.8 C0389 -0.68 C0403 -0.578 C0416 -0.4913 C0428 -0.417605 C0439 -0.35496425 C0449 +2 C0465 <= +2.7
 R0002: +0.1815 C0002 +0.219615 C0005 +0.26573415 C0010 +0.08 C0014 +0.088 C0016 +0.0968 C0019 +0.10648 C0023
  +0.117128 C0028 +0.1288408 C0034 +0.14172488 C0041 -1.3736 C0049 -0.992426 C0052 -0.717027785 C0057
  -0.808 C0063 -0.6868 C0065 -0.58378 C0068 -0.496213 C0072 -0.42178105 C0077 -0.358513893 C0083 -0.304736809 C0090
  +1.01 C0099 +0.55 C0101 +0.44 C0116 +0.15 C0131 +0.165 C0145 +0.19965 C0173 +0.2415765 C0199 -1.616 C0293
  -1.16756 C0323 -0.8435621 C0351 -0.609473617 C0377 +2.02 C0466 <= +2.7
 R0003: +0.19965 C0004 +0.2415765 C0008 +0.088 C0017 +0.0968 C0020 +0.10648 C0024 +0.117128 C0029 +0.1288408 C0035
  +0.14172488 C0042 -1.1792356 C0051 -0.851997721 C0055 -0.615568353 C0060 -0.81608 C0064 -0.693668 C0066
  -0.5896178 C0069 -0.50117513 C0073 -0.425998861 C0078 -0.362099031 C0084 -0.307784177 C0091 +0.605 C0102
  +0.484 C0117 +0.15 C0132 +0.165 C0146 +0.1815 C0160 +0.219615 C0187 +0.26573415 C0212 +0.08 C0223 -1.63216 C0294
  -1.387336 C0309 -1.00235026 C0338 -0.724198063 C0365 +2.0402 C0467 +1.0201 C0480 <= +2.7
 R0004: +0.219615 C0006 +0.26573415 C0011 +0.0968 C0021 +0.10648 C0025 +0.117128 C0030 +0.1288408 C0036
  +0.14172488 C0043 -1.012373763 C0053 -0.731440043 C0058 -0.70060468 C0067 -0.595513978 C0070 -0.506186881 C0074
  -0.430258849 C0079 -0.365720022 C0085 -0.310862018 C0092 +0.6655 C0103 +0.5324 C0118 +0.15 C0133 +0.165 C0147
  +0.1815 C0161 +0.19965 C0174 +0.2415765 C0200 +0.08 C0224 +0.088 C0236 -1.6484816 C0295 -1.40120936 C0310
  -1.191027956 C0324 -0.860517698 C0352 -0.621724037 C0378 -0.8242408 C0390 +2.060602 C0468 +1.030301 C0481
  <= +2.7
 R0005: +0.2415765 C0009 +0.10648 C0026 +0.117128 C0031 +0.1288408 C0037 +0.14172488 C0044 -0.869122909 C0056
  -0.627941301 C0061 -0.60146917 C0071 -0.511248794 C0075 -0.434561475 C0080 -0.369377254 C0086 -0.313970666 C0093
  +0.73205 C0104 +0.58564 C0119 +0.15 C0134 +0.165 C0148 +0.1815 C0162 +0.19965 C0175 +0.219615 C0188
  +0.26573415 C0213 +0.08 C0225 +0.088 C0237 +0.0968 C0248 -1.66496648 C0296 -1.415221508 C0311 -1.202938282 C0325
  -1.02249754 C0339 -0.738754472 C0366 -0.83248328 C0391 -0.707610788 C0404 +2.0812081 C0469 +1.0406041 C0482
  <= +2.7
 R0006: +0.26573415 C0012 +0.117128 C0032 +0.1288408 C0038 +0.14172488 C0045 -0.746142024 C0059 -0.516361311 C0076
  -0.438907115 C0081 -0.373071047 C0087 -0.31711039 C0094 +0.805255 C0105 +0.644204 C0120 +0.15 C0135
  +0.165 C0149 +0.1815 C0163 +0.19965 C0176 +0.219615 C0189 +0.2415765 C0201 +0.08 C0226 +0.088 C0238
  +0.0968 C0249 +0.10648 C0259 -1.68161616 C0297 -1.429373736 C0312 -1.214967676 C0326 -1.032722524 C0340
  -0.877814146 C0353 -0.63422072 C0379 -0.84080816 C0392 -0.714686936 C0405 -0.607483896 C0417 +2.1020202 C0470
  +1.0510102 C0483 <= +2.7
 R0007: +0.1288408 C0039 +0.14172488 C0046 -0.640562957 C0062 -0.443296227 C0082 -0.376801793 C0088 -0.320281524 C0095
  +0.8857805 C0106 +0.7086244 C0121 +0.15 C0136 +0.165 C0150 +0.1815 C0164 +0.19965 C0177 +0.219615 C0190
  +0.2415765 C0202 +0.26573415 C0214 +0.08 C0227 +0.088 C0239 +0.0968 C0250 +0.10648 C0260 +0.117128 C0269
  -1.6984324 C0298 -1.44366754 C0313 -1.227117409 C0327 -1.043049798 C0341 -0.886592328 C0354 -0.753603479 C0367
  -0.84921632 C0393 -0.721833872 C0406 -0.613558791 C0418 -0.521524973 C0429 +2.1230405 C0471 +1.0615204 C0484
  <= +2.7
 R0008: +0.14172488 C0047 -0.380569845 C0089 -0.323484368 C0096 +0.9743586 C0107 +0.7794869 C0122 +0.15 C0137
  +0.165 C0151 +0.1815 C0165 +0.19965 C0178 +0.219615 C0191 +0.2415765 C0203 +0.26573415 C0215 +0.08 C0228
  +0.088 C0240 +0.0968 C0251 +0.10648 C0261 +0.117128 C0270 +0.1288408 C0278 -1.7154168 C0299 -1.45810428 C0314
  -1.239388638 C0328 -1.053480342 C0342 -0.895458291 C0355 -0.761139547 C0368 -0.646968615 C0380 -0.85770856 C0394
  -0.729052276 C0407 -0.619694435 C0419 -0.526740269 C0430 -0.447729229 C0440 +2.144271 C0472 +1.0721357 C0485
  <= +2.7
 R0009: -0.326719225 C0097 +1.0717945 C0108 +0.8574356 C0123 +0.15 C0138 +0.165 C0152 +0.1815 C0166 +0.19965 C0179
  +0.219615 C0192 +0.2415765 C0204 +0.26573415 C0216 +0.08 C0229 +0.088 C0241 +0.0968 C0252 +0.10648 C0262
  +0.117128 C0271 +0.1288408 C0279 +0.14172488 C0286 -1.73257104 C0300 -1.472685384 C0315 -1.251782576 C0329
  -1.06401519 C0343 -0.904412911 C0356 -0.768750975 C0369 -0.653438329 C0381 -0.86628568 C0395 -0.736342828 C0408
  -0.625891404 C0420 -0.532007693 C0431 -0.452206539 C0441 -0.384375558 C0450 +2.1657138 C0473 +1.0828571 C0486
  <= +2.7
 R0010: +1.178974 C0109 +0.9431792 C0124 +0.15 C0139 +0.165 C0153 +0.1815 C0167 +0.19965 C0180 +0.219615 C0193
  +0.2415765 C0205 +0.26573415 C0217 +0.08 C0230 +0.088 C0242 +0.0968 C0253 +0.10648 C0263 +0.117128 C0272
  +0.1288408 C0280 +0.14172488 C0287 -1.7498968 C0301 -1.48741228 C0316 -1.264300438 C0330 -1.074655372 C0344
  -0.913457066 C0357 -0.776438506 C0370 -0.659972731 C0382 -0.87494856 C0396 -0.743706276 C0409 -0.632150335 C0421
  -0.537327784 C0432 -0.456728617 C0442 -0.388219324 C0451 -0.329986426 C0458 +2.187371 C0474 +1.0936857 C0487
  <= +2.7
 R0011: +1.2968714 C0110 +1.0374972 C0125 +0.15 C0140 +0.165 C0154 +0.1815 C0168 +0.19965 C0181 +0.219615 C0194
  +0.2415765 C0206 +0.26573415 C0218 +0.08 C0231 +0.088 C0243 +0.0968 C0254 +0.10648 C0264 +0.117128 C0273
  +0.1288408 C0281 +0.14172488 C0288 -1.76739584 C0302 -1.502286464 C0317 -1.276943494 C0331 -1.08540197 C0345
  -0.922591675 C0358 -0.784202923 C0371 -0.666572485 C0383 -0.88369808 C0397 -0.751143368 C0410 -0.638471863 C0422
  -0.542701083 C0433 -0.461295921 C0443 -0.392101533 C0452 -0.333286303 C0459 +2.2092448 C0475 +1.1046226 C0488
  <= +2.7
 R0012: +1.4265586 C0111 +1.141247 C0126 +0.15 C0141 +0.165 C0155 +0.1815 C0169 +0.19965 C0182 +0.219615 C0195
  +0.2415765 C0207 +0.26573415 C0219 +0.08 C0232 +0.088 C0244 +0.0968 C0255 +0.10648 C0265 +0.117128 C0274
  +0.1288408 C0282 +0.14172488 C0289 -1.78506984 C0303 -1.517309364 C0318 -1.289712959 C0332 -1.096256015 C0346
  -0.931817613 C0359 -0.792044971 C0372 -0.673238226 C0384 -0.89253512 C0398 -0.758654852 C0411 -0.644856624 C0423
  -0.548128131 C0434 -0.465908911 C0444 -0.396022574 C0453 -0.336619188 C0460 +2.2313373 C0476 +1.1156689 C0489
  <= +2.7
 R0013: +1.5692145 C0112 +1.2553717 C0127 +0.15 C0142 +0.165 C0156 +0.1815 C0170 +0.19965 C0183 +0.219615 C0196
  +0.2415765 C0208 +0.26573415 C0220 +0.08 C0233 +0.088 C0245 +0.0968 C0256 +0.10648 C0266 +0.117128 C0275
  +0.1288408 C0283 +0.14172488 C0290 -1.80292056 C0304 -1.532482476 C0319 -1.302610105 C0333 -1.107218589 C0347
  -0.941135801 C0360 -0.79996543 C0373 -0.679970616 C0385 -0.90146048 C0399 -0.766241408 C0412 -0.651305197 C0424
  -0.553609417 C0435 -0.470568005 C0445 -0.399982804 C0454 -0.339985383 C0461 +2.2536507 C0477 +1.1268256 C0490
  <= +2.7
 R0014: +1.726136 C0113 +1.3809089 C0128 +0.15 C0143 +0.165 C0157 +0.1815 C0171 +0.19965 C0184 +0.219615 C0197
  +0.2415765 C0209 +0.26573415 C0221 +0.08 C0234 +0.088 C0246 +0.0968 C0257 +0.10648 C0267 +0.117128 C0276
  +0.1288408 C0284 +0.14172488 C0291 -1.82094984 C0305 -1.547807364 C0320 -1.315636259 C0334 -1.11829082 C0348
  -0.950547197 C0361 -0.807965118 C0374 -0.68677035 C0386 -0.91047512 C0400 -0.773903852 C0413 -0.657818274 C0425
  -0.559145533 C0436 -0.475273703 C0446 -0.403982648 C0455 -0.34338525 C0462 +2.2761873 C0478 +1.1380939 C0491
  <= +2.7
 R0015: +1.8987496 C0114 +1.5189998 C0129 +0.15 C0144 +0.165 C0158 +0.1815 C0172 +0.19965 C0185 +0.219615 C0198
  +0.2415765 C0210 +0.26573415 C0222 +0.08 C0235 +0.088 C0247 +0.0968 C0258 +0.10648 C0268 +0.117128 C0277
  +0.1288408 C0285 +0.14172488 C0292 -1.83915936 C0306 -1.563285456 C0321 -1.328792638 C0335 -1.129473742 C0349
  -0.960052681 C0362 -0.816044779 C0375 -0.693638062 C0387 -0.91957992 C0401 -0.781642932 C0414 -0.664396492 C0426
  -0.564737018 C0437 -0.480026466 C0447 -0.408022496 C0456 -0.346819121 C0463 +2.2989492 C0479 +1.1494749 C0492
  <= +2.7
 R0016: +4000 C0001 +4000 C0003 +4000 C0007 +2000 C0013 +2000 C0015 +2000 C0018 +2000 C0022 +2000 C0027
  +2000 C0033 +2000 C0040 +4000 C0130 +4000 C0159 +4000 C0186 +4000 C0211 +1 C0493 +1 C0509 >= +8750
 R0017: +4000 C0002 +4000 C0005 +4000 C0010 +2000 C0014 +2000 C0016 +2000 C0019 +2000 C0023 +2000 C0028
  +2000 C0034 +2000 C0041 +4000 C0131 +4000 C0145 +4000 C0173 +4000 C0199 +1 C0494 +1 C0510 >= +9188
 R0018: +4000 C0004 +4000 C0008 +2000 C0017 +2000 C0020 +2000 C0024 +2000 C0029 +2000 C0035 +2000 C0042
  +4000 C0132 +4000 C0146 +4000 C0160 +4000 C0187 +4000 C0212 +2000 C0223 +1 C0495 +1 C0511 >= +9648
 R0019: +4000 C0006 +4000 C0011 +2000 C0021 +2000 C0025 +2000 C0030 +2000 C0036 +2000 C0043 +4000 C0133
  +4000 C0147 +4000 C0161 +4000 C0174 +4000 C0200 +2000 C0224 +2000 C0236 +1 C0496 +1 C0512 >= +10131
 R0020: +4000 C0009 +2000 C0026 +2000 C0031 +2000 C0037 +2000 C0044 +4000 C0134 +4000 C0148 +4000 C0162
  +4000 C0175 +4000 C0188 +4000 C0213 +2000 C0225 +2000 C0237 +2000 C0248 +1 C0497 +1 C0513 >= +10639
 R0021: +4000 C0012 +2000 C0032 +2000 C0038 +2000 C0045 +4000 C0135 +4000 C0149 +4000 C0163 +4000 C0176
  +4000 C0189 +4000 C0201 +2000 C0226 +2000 C0238 +2000 C0249 +2000 C0259 +1 C0498 +1 C0514 >= +11171
 R0022: +2000 C0039 +2000 C0046 +4000 C0136 +4000 C0150 +4000 C0164 +4000 C0177 +4000 C0190 +4000 C0202
  +4000 C0214 +2000 C0227 +2000 C0239 +2000 C0250 +2000 C0260 +2000 C0269 +1 C0499 +1 C0515 >= +11731
 R0023: +2000 C0047 +4000 C0137 +4000 C0151 +4000 C0165 +4000 C0178 +4000 C0191 +4000 C0203 +4000 C0215
  +2000 C0228 +2000 C0240 +2000 C0251 +2000 C0261 +2000 C0270 +2000 C0278 +1 C0500 +1 C0516 >= +12319
 R0024: +4000 C0138 +4000 C0152 +4000 C0166 +4000 C0179 +4000 C0192 +4000 C0204 +4000 C0216 +2000 C0229
  +2000 C0241 +2000 C0252 +2000 C0262 +2000 C0271 +2000 C0279 +2000 C0286 +1 C0501 +1 C0517 >= +12935
 R0025: +4000 C0139 +4000 C0153 +4000 C0167 +4000 C0180 +4000 C0193 +4000 C0205 +4000 C0217 +2000 C0230
  +2000 C0242 +2000 C0253 +2000 C0263 +2000 C0272 +2000 C0280 +2000 C0287 +1 C0502 +1 C0518 >= +13582
 R0026: +4000 C0140 +4000 C0154 +4000 C0168 +4000 C0181 +4000 C0194 +4000 C0206 +4000 C0218 +2000 C0231
  +2000 C0243 +2000 C0254 +2000 C0264 +2000 C0273 +2000 C0281 +2000 C0288 +1 C0503 +1 C0519 >= +14263
 R0027: +4000 C0141 +4000 C0155 +4000 C0169 +4000 C0182 +4000 C0195 +4000 C0207 +4000 C0219 +2000 C0232
  +2000 C0244 +2000 C0255 +2000 C0265 +2000 C0274 +2000 C0282 +2000 C0289 +1 C0504 +1 C0520 >= +14977
 R0028: +4000 C0142 +4000 C0156 +4000 C0170 +4000 C0183 +4000 C0196 +4000 C0208 +4000 C0220 +2000 C0233
  +2000 C0245 +2000 C0256 +2000 C0266 +2000 C0275 +2000 C0283 +2000 C0290 +1 C0505 +1 C0521 >= +15726
 R0029: +4000 C0143 +4000 C0157 +4000 C0171 +4000 C0184 +4000 C0197 +4000 C0209 +4000 C0221 +2000 C0234
  +2000 C0246 +2000 C0257 +2000 C0267 +2000 C0276 +2000 C0284 +2000 C0291 +1 C0506 +1 C0522 >= +16513
 R0030: +4000 C0144 +4000 C0158 +4000 C0172 +4000 C0185 +4000 C0198 +4000 C0210 +4000 C0222 +2000 C0235
  +2000 C0247 +2000 C0258 +2000 C0268 +2000 C0277 +2000 C0285 +2000 C0292 +1 C0507 +1 C0523 >= +17339
 R0031: +4000 C0001 +4000 C0003 +4000 C0007 +4000 C0130 +4000 C0159 +4000 C0186 +4000 C0211 +1 C0493 >= +5000
 R0032: +4000 C0002 +4000 C0005 +4000 C0010 +4000 C0131 +4000 C0145 +4000 C0173 +4000 C0199 +1 C0494 >= +5250
 R0033: +4000 C0004 +4000 C0008 +4000 C0132 +4000 C0146 +4000 C0160 +4000 C0187 +4000 C0212 +1 C0495 >= +5513
 R0034: +4000 C0006 +4000 C0011 +4000 C0133 +4000 C0147 +4000 C0161 +4000 C0174 +4000 C0200 +1 C0496 >= +5789
 R0035: +4000 C0009 +4000 C0134 +4000 C0148 +4000 C0162 +4000 C0175 +4000 C0188 +4000 C0213 +1 C0497 >= +6079
 R0036: +4000 C0012 +4000 C0135 +4000 C0149 +4000 C0163 +4000 C0176 +4000 C0189 +4000 C0201 +1 C0498 >= +6383
 R0037: +4000 C0136 +4000 C0150 +4000 C0164 +4000 C0177 +4000 C0190 +4000 C0202 +4000 C0214 +1 C0499 >= +6703
 R0038: +4000 C0137 +4000 C0151 +4000 C0165 +4000 C0178 +4000 C0191 +4000 C0203 +4000 C0215 +1 C0500 >= +7039
 R0039: +4000 C0138 +4000 C0152 +4000 C0166 +4000 C0179 +4000 C0192 +4000 C0204 +4000 C0216 +1 C0501 >= +7391
 R0040: +4000 C0139 +4000 C0153 +4000 C0167 +4000 C0180 +4000 C0193 +4000 C0205 +4000 C0217 +1 C0502 >= +7761
 R0041: +4000 C0140 +4000 C0154 +4000 C0168 +4000 C0181 +4000 C0194 +4000 C0206 +4000 C0218 +1 C0503 >= +8150
 R0042: +4000 C0141 +4000 C0155 +4000 C0169 +4000 C0182 +4000 C0195 +4000 C0207 +4000 C0219 +1 C0504 >= +8558
 R0043: +4000 C0142 +4000 C0156 +4000 C0170 +4000 C0183 +4000 C0196 +4000 C0208 +4000 C0220 +1 C0505 >= +8986
 R0044: +4000 C0143 +4000 C0157 +4000 C0171 +4000 C0184 +4000 C0197 +4000 C0209 +4000 C0221 +1 C0506 >= +9436
 R0045: +4000 C0144 +4000 C0158 +4000 C0172 +4000 C0185 +4000 C0198 +4000 C0210 +4000 C0222 +1 C0507 >= +9908
 R0046: +2000 C0013 +2000 C0015 +2000 C0018 +2000 C0022 +2000 C0027 +2000 C0033 +2000 C0040 +1 C0509 <= +3750
 R0047: +2000 C0014 +2000 C0016 +2000 C0019 +2000 C0023 +2000 C0028 +2000 C0034 +2000 C0041 +1 C0510 <= +3938
 R0048: +2000 C0017 +2000 C0020 +2000 C0024 +2000 C0029 +2000 C0035 +2000 C0042 +2000 C0223 +1 C0511 <= +4135
 R0049: +2000 C0021 +2000 C0025 +2000 C0030 +2000 C0036 +2000 C0043 +2000 C0224 +2000 C0236 +1 C0512 <= +4342
 R0050: +2000 C0026 +2000 C0031 +2000 C0037 +2000 C0044 +2000 C0225 +2000 C0237 +2000 C0248 +1 C0513 <= +4560
 R0051: +2000 C0032 +2000 C0038 +2000 C0045 +2000 C0226 +2000 C0238 +2000 C0249 +2000 C0259 +1 C0514 <= +4788
 R0052: +2000 C0039 +2000 C0046 +2000 C0227 +2000 C0239 +2000 C0250 +2000 C0260 +2000 C0269 +1 C0515 <= +5028
 R0053: +2000 C0047 +2000 C0228 +2000 C0240 +2000 C0251 +2000 C0261 +2000 C0270 +2000 C0278 +1 C0516 <= +5280
 R0054: +2000 C0229 +2000 C0241 +2000 C0252 +2000 C0262 +2000 C0271 +2000 C0279 +2000 C0286 +1 C0517 <= +5544
 R0055: +2000 C0230 +2000 C0242 +2000 C0253 +2000 C0263 +2000 C0272 +2000 C0280 +2000 C0287 +1 C0518 <= +5821
 R0056: +2000 C0231 +2000 C0243 +2000 C0254 +2000 C0264 +2000 C0273 +2000 C0281 +2000 C0288 +1 C0519 <= +6113
 R0057: +2000 C0232 +2000 C0244 +2000 C0255 +2000 C0265 +2000 C0274 +2000 C0282 +2000 C0289 +1 C0520 <= +6419
 R0058: +2000 C0233 +2000 C0245 +2000 C0256 +2000 C0266 +2000 C0275 +2000 C0283 +2000 C0290 +1 C0521 <= +6740
 R0059: +2000 C0234 +2000 C0246 +2000 C0257 +2000 C0267 +2000 C0276 +2000 C0284 +2000 C0291 +1 C0522 <= +7077
 R0060: +2000 C0235 +2000 C0247 +2000 C0258 +2000 C0268 +2000 C0277 +2000 C0285 +2000 C0292 +1 C0523 <= +7431
 R0061: +1 C0001 +1 C0048 = +1
 R0062: +1 C0159 +1 C0308 = +2
 R0063: +1 C0003 +1 C0050 = +1
 R0064: +1 C0186 +1 C0337 = +2
 R0065: +1 C0007 +1 C0054 = +1
 R0066: +1 C0211 +1 C0364 = +2
 R0067: +1 C0015 +1 C0389 = +2
 R0068: +1 C0018 +1 C0403 = +3
 R0069: +1 C0022 +1 C0416 = +4
 R0070: +1 C0027 +1 C0428 = +2
 R0071: +1 C0033 +1 C0439 = +3
 R0072: +1 C0040 +1 C0449 = +4
 R0073: +1 C0130 -1 C0145 -1 C0293 = +0
 R0074: +1 C0131 -1 C0146 -1 C0294 = +0
 R0075: +1 C0132 -1 C0147 -1 C0295 = +0
 R0076: +1 C0133 -1 C0148 -1 C0296 = +0
 R0077: +1 C0134 -1 C0149 -1 C0297 = +0
 R0078: +1 C0135 -1 C0150 -1 C0298 = +0
 R0079: +1 C0136 -1 C0151 -1 C0299 = +0
 R0080: +1 C0137 -1 C0152 -1 C0300 = +0
 R0081: +1 C0138 -1 C0153 -1 C0301 = +0
 R0082: +1 C0139 -1 C0154 -1 C0302 = +0
 R0083: +1 C0140 -1 C0155 -1 C0303 = +0
 R0084: +1 C0141 -1 C0156 -1 C0304 = +0
 R0085: +1 C0142 -1 C0157 -1 C0305 = +0
 R0086: +1 C0143 -1 C0158 -1 C0306 = +0
 R0087: +1 C0001 -1 C0002 -1 C0049 = +0
 R0088: +1 C0145 -1 C0160 -1 C0309 = +0
 R0089: +1 C0146 -1 C0161 -1 C0310 = +0
 R0090: +1 C0147 -1 C0162 -1 C0311 = +0
 R0091: +1 C0148 -1 C0163 -1 C0312 = +0
 R0092: +1 C0149 -1 C0164 -1 C0313 = +0
 R0093: +1 C0150 -1 C0165 -1 C0314 = +0
 R0094: +1 C0151 -1 C0166 -1 C0315 = +0
 R0095: +1 C0152 -1 C0167 -1 C0316 = +0
 R0096: +1 C0153 -1 C0168 -1 C0317 = +0
 R0097: +1 C0154 -1 C0169 -1 C0318 = +0
 R0098: +1 C0155 -1 C0170 -1 C0319 = +0
 R0099: +1 C0156 -1 C0171 -1 C0320 = +0
 R0100: +1 C0157 -1 C0172 -1 C0321 = +0
 R0101: +1 C0159 -1 C0173 -1 C0323 = +0
 R0102: +1 C0002 -1 C0004 -1 C0051 = +0
 R0103: +1 C0160 -1 C0174 -1 C0324 = +0
 R0104: +1 C0161 -1 C0175 -1 C0325 = +0
 R0105: +1 C0162 -1 C0176 -1 C0326 = +0
 R0106: +1 C0163 -1 C0177 -1 C0327 = +0
 R0107: +1 C0164 -1 C0178 -1 C0328 = +0
 R0108: +1 C0165 -1 C0179 -1 C0329 = +0
 R0109: +1 C0166 -1 C0180 -1 C0330 = +0
 R0110: +1 C0167 -1 C0181 -1 C0331 = +0
 R0111: +1 C0168 -1 C0182 -1 C0332 = +0
 R0112: +1 C0169 -1 C0183 -1 C0333 = +0
 R0113: +1 C0170 -1 C0184 -1 C0334 = +0
 R0114: +1 C0171 -1 C0185 -1 C0335 = +0
 R0115: +1 C0003 -1 C0005 -1 C0052 = +0
 R0116: +1 C0173 -1 C0187 -1 C0338 = +0
 R0117: +1 C0004 -1 C0006 -1 C0053 = +0
 R0118: +1 C0174 -1 C0188 -1 C0339 = +0
 R0119: +1 C0175 -1 C0189 -1 C0340 = +0
 R0120: +1 C0176 -1 C0190 -1 C0341 = +0
 R0121: +1 C0177 -1 C0191 -1 C0342 = +0
 R0122: +1 C0178 -1 C0192 -1 C0343 = +0
 R0123: +1 C0179 -1 C0193 -1 C0344 = +0
 R0124: +1 C0180 -1 C0194 -1 C0345 = +0
 R0125: +1 C0181 -1 C0195 -1 C0346 = +0
 R0126: +1 C0182 -1 C0196 -1 C0347 = +0
 R0127: +1 C0183 -1 C0197 -1 C0348 = +0
 R0128: +1 C0184 -1 C0198 -1 C0349 = +0
 R0129: +1 C0186 -1 C0199 -1 C0351 = +0
 R0130: +1 C0005 -1 C0008 -1 C0055 = +0
 R0131: +1 C0187 -1 C0200 -1 C0352 = +0
 R0132: +1 C0006 -1 C0009 -1 C0056 = +0
 R0133: +1 C0188 -1 C0201 -1 C0353 = +0
 R0134: +1 C0189 -1 C0202 -1 C0354 = +0
 R0135: +1 C0190 -1 C0203 -1 C0355 = +0
 R0136: +1 C0191 -1 C0204 -1 C0356 = +0
 R0137: +1 C0192 -1 C0205 -1 C0357 = +0
 R0138: +1 C0193 -1 C0206 -1 C0358 = +0
 R0139: +1 C0194 -1 C0207 -1 C0359 = +0
 R0140: +1 C0195 -1 C0208 -1 C0360 = +0
 R0141: +1 C0196 -1 C0209 -1 C0361 = +0
 R0142: +1 C0197 -1 C0210 -1 C0362 = +0
 R0143: +1 C0007 -1 C0010 -1 C0057 = +0
 R0144: +1 C0199 -1 C0212 -1 C0365 = +0
 R0145: +1 C0008 -1 C0011 -1 C0058 = +0
 R0146: +1 C0200 -1 C0213 -1 C0366 = +0
 R0147: +1 C0009 -1 C0012 -1 C0059 = +0
 R0148: +1 C0201 -1 C0214 -1 C0367 = +0
 R0149: +1 C0202 -1 C0215 -1 C0368 = +0
 R0150: +1 C0203 -1 C0216 -1 C0369 = +0
 R0151: +1 C0204 -1 C0217 -1 C0370 = +0
 R0152: +1 C0205 -1 C0218 -1 C0371 = +0
 R0153: +1 C0206 -1 C0219 -1 C0372 = +0
 R0154: +1 C0207 -1 C0220 -1 C0373 = +0
 R0155: +1 C0208 -1 C0221 -1 C0374 = +0
 R0156: +1 C0209 -1 C0222 -1 C0375 = +0
 R0157: +1 C0013 -1 C0016 -1 C0063 = +0
 R0158: +1 C0014 -1 C0017 -1 C0064 = +0
 R0159: +1 C0223 -1 C0236 -1 C0390 = +0
 R0160: +1 C0224 -1 C0237 -1 C0391 = +0
 R0161: +1 C0225 -1 C0238 -1 C0392 = +0
 R0162: +1 C0226 -1 C0239 -1 C0393 = +0
 R0163: +1 C0227 -1 C0240 -1 C0394 = +0
 R0164: +1 C0228 -1 C0241 -1 C0395 = +0
 R0165: +1 C0229 -1 C0242 -1 C0396 = +0
 R0166: +1 C0230 -1 C0243 -1 C0397 = +0
 R0167: +1 C0231 -1 C0244 -1 C0398 = +0
 R0168: +1 C0232 -1 C0245 -1 C0399 = +0
 R0169: +1 C0233 -1 C0246 -1 C0400 = +0
 R0170: +1 C0234 -1 C0247 -1 C0401 = +0
 R0171: +1 C0015 -1 C0019 -1 C0065 = +0
 R0172: +1 C0016 -1 C0020 -1 C0066 = +0
 R0173: +1 C0017 -1 C0021 -1 C0067 = +0
 R0174: +1 C0236 -1 C0248 -1 C0404 = +0
 R0175: +1 C0237 -1 C0249 -1 C0405 = +0
 R0176: +1 C0238 -1 C0250 -1 C0406 = +0
 R0177: +1 C0239 -1 C0251 -1 C0407 = +0
 R0178: +1 C0240 -1 C0252 -1 C0408 = +0
 R0179: +1 C0241 -1 C0253 -1 C0409 = +0
 R0180: +1 C0242 -1 C0254 -1 C0410 = +0
 R0181: +1 C0243 -1 C0255 -1 C0411 = +0
 R0182: +1 C0244 -1 C0256 -1 C0412 = +0
 R0183: +1 C0245 -1 C0257 -1 C0413 = +0
 R0184: +1 C0246 -1 C0258 -1 C0414 = +0
 R0185: +1 C0018 -1 C0023 -1 C0068 = +0
 R0186: +1 C0019 -1 C0024 -1 C0069 = +0
 R0187: +1 C0020 -1 C0025 -1 C0070 = +0
 R0188: +1 C0021 -1 C0026 -1 C0071 = +0
 R0189: +1 C0248 -1 C0259 -1 C0417 = +0
 R0190: +1 C0249 -1 C0260 -1 C0418 = +0
 R0191: +1 C0250 -1 C0261 -1 C0419 = +0
 R0192: +1 C0251 -1 C0262 -1 C0420 = +0
 R0193: +1 C0252 -1 C0263 -1 C0421 = +0
 R0194: +1 C0253 -1 C0264 -1 C0422 = +0
 R0195: +1 C0254 -1 C0265 -1 C0423 = +0
 R0196: +1 C0255 -1 C0266 -1 C0424 = +0
 R0197: +1 C0256 -1 C0267 -1 C0425 = +0
 R0198: +1 C0257 -1 C0268 -1 C0426 = +0
 R0199: +1 C0022 -1 C0028 -1 C0072 = +0
 R0200: +1 C0023 -1 C0029 -1 C0073 = +0
 R0201: +1 C0024 -1 C0030 -1 C0074 = +0
 R0202: +1 C0025 -1 C0031 -1 C0075 = +0
 R0203: +1 C0026 -1 C0032 -1 C0076 = +0
 R0204: +1 C0259 -1 C0269 -1 C0429 = +0
 R0205: +1 C0260 -1 C0270 -1 C0430 = +0
 R0206: +1 C0261 -1 C0271 -1 C0431 = +0
 R0207: +1 C0262 -1 C0272 -1 C0432 = +0
 R0208: +1 C0263 -1 C0273 -1 C0433 = +0
 R0209: +1 C0264 -1 C0274 -1 C0434 = +0
 R0210: +1 C0265 -1 C0275 -1 C0435 = +0
 R0211: +1 C0266 -1 C0276 -1 C0436 = +0
 R0212: +1 C0267 -1 C0277 -1 C0437 = +0
 R0213: +1 C0027 -1 C0034 -1 C0077 = +0
 R0214: +1 C0028 -1 C0035 -1 C0078 = +0
 R0215: +1 C0029 -1 C0036 -1 C0079 = +0
 R0216: +1 C0030 -1 C0037 -1 C0080 = +0
 R0217: +1 C0031 -1 C0038 -1 C0081 = +0
 R0218: +1 C0032 -1 C0039 -1 C0082 = +0
 R0219: +1 C0269 -1 C0278 -1 C0440 = +0
 R0220: +1 C0270 -1 C0279 -1 C0441 = +0
 R0221: +1 C0271 -1 C0280 -1 C0442 = +0
 R0222: +1 C0272 -1 C0281 -1 C0443 = +0
 R0223: +1 C0273 -1 C0282 -1 C0444 = +0
 R0224: +1 C0274 -1 C0283 -1 C0445 = +0
 R0225: +1 C0275 -1 C0284 -1 C0446 = +0
 R0226: +1 C0276 -1 C0285 -1 C0447 = +0
 R0227: +1 C0033 -1 C0041 -1 C0083 = +0
 R0228: +1 C0034 -1 C0042 -1 C0084 = +0
 R0229: +1 C0035 -1 C0043 -1 C0085 = +0
 R0230: +1 C0036 -1 C0044 -1 C0086 = +0
 R0231: +1 C0037 -1 C0045 -1 C0087 = +0
 R0232: +1 C0038 -1 C0046 -1 C0088 = +0
 R0233: +1 C0039 -1 C0047 -1 C0089 = +0
 R0234: +1 C0278 -1 C0286 -1 C0450 = +0
 R0235: +1 C0279 -1 C0287 -1 C0451 = +0
 R0236: +1 C0280 -1 C0288 -1 C0452 = +0
 R0237: +1 C0281 -1 C0289 -1 C0453 = +0
 R0238: +1 C0282 -1 C0290 -1 C0454 = +0
 R0239: +1 C0283 -1 C0291 -1 C0455 = +0
 R0240: +1 C0284 -1 C0292 -1 C0456 = +0
 R0241: +1 C0211 -1 C0377 = +0
 R0242: +1 C0010 -1 C0060 = +0
 R0243: +1 C0212 -1 C0378 = +0
 R0244: +1 C0011 -1 C0061 = +0
 R0245: +1 C0213 -1 C0379 = +0
 R0246: +1 C0012 -1 C0062 = +0
 R0247: +1 C0214 -1 C0380 = +0
 R0248: +1 C0215 -1 C0381 = +0
 R0249: +1 C0216 -1 C0382 = +0
 R0250: +1 C0217 -1 C0383 = +0
 R0251: +1 C0218 -1 C0384 = +0
 R0252: +1 C0219 -1 C0385 = +0
 R0253: +1 C0220 -1 C0386 = +0
 R0254: +1 C0221 -1 C0387 = +0
 R0255: +1 C0222 -1 C0388 = +0
 R0256: +1 C0040 -1 C0090 = +0
 R0257: +1 C0041 -1 C0091 = +0
 R0258: +1 C0042 -1 C0092 = +0
 R0259: +1 C0043 -1 C0093 = +0
 R0260: +1 C0044 -1 C0094 = +0
 R0261: +1 C0045 -1 C0095 = +0
 R0262: +1 C0046 -1 C0096 = +0
 R0263: +1 C0047 -1 C0097 = +0
 R0264: +1 C0286 -1 C0458 = +0
 R0265: +1 C0287 -1 C0459 = +0
 R0266: +1 C0288 -1 C0460 = +0
 R0267: +1 C0289 -1 C0461 = +0
 R0268: +1 C0290 -1 C0462 = +0
 R0269: +1 C0291 -1 C0463 = +0
 R0270: +1 C0292 -1 C0464 = +0
 R0271: +1 C0130 -1 C0465 = +0
 R0272: +1 C0131 -1 C0466 = +0
 R0273: +1 C0132 -1 C0467 = +0
 R0274: +1 C0133 -1 C0468 = +0
 R0275: +1 C0134 -1 C0469 = +0
 R0276: +1 C0135 -1 C0470 = +0
 R0277: +1 C0136 -1 C0471 = +0
 R0278: +1 C0137 -1 C0472 = +0
 R0279: +1 C0138 -1 C0473 = +0
 R0280: +1 C0139 -1 C0474 = +0
 R0281: +1 C0140 -1 C0475 = +0
 R0282: +1 C0141 -1 C0476 = +0
 R0283: +1 C0142 -1 C0477 = +0
 R0284: +1 C0143 -1 C0478 = +0
 R0285: +1 C0144 -1 C0479 = +0
 R0286: +1 C0013 -1 C0098 = +0
 R0287: +1 C0014 -1 C0099 = +0
 R0288: +1 C0223 -1 C0480 = +0
 R0289: +1 C0224 -1 C0481 = +0
 R0290: +1 C0225 -1 C0482 = +0
 R0291: +1 C0226 -1 C0483 = +0
 R0292: +1 C0227 -1 C0484 = +0
 R0293: +1 C0228 -1 C0485 = +0
 R0294: +1 C0229 -1 C0486 = +0
 R0295: +1 C0230 -1 C0487 = +0
 R0296: +1 C0231 -1 C0488 = +0
 R0297: +1 C0232 -1 C0489 = +0
 R0298: +1 C0233 -1 C0490 = +0
 R0299: +1 C0234 -1 C0491 = +0
 R0300: +1 C0235 -1 C0492 = +0
 R0301: -18207 C0101 +4000 C0466 <= +0
 R0302: -18207 C0102 +4000 C0467 <= +0
 R0303: -18207 C0103 +4000 C0468 <= +0
 R0304: -18207 C0104 +4000 C0469 <= +0
 R0305: -18207 C0105 +4000 C0470 <= +0
 R0306: -18207 C0106 +4000 C0471 <= +0
 R0307: -18207 C0107 +4000 C0472 <= +0
 R0308: -18207 C0108 +4000 C0473 <= +0
 R0309: -18207 C0109 +4000 C0474 <= +0
 R0310: -18207 C0110 +4000 C0475 <= +0
 R0311: -18207 C0111 +4000 C0476 <= +0
 R0312: -18207 C0112 +4000 C0477 <= +0
 R0313: -18207 C0113 +4000 C0478 <= +0
 R0314: -18207 C0114 +4000 C0479 <= +0
 R0315: +2000 C0099 -10404 C0116 <= +0
 R0316: -10404 C0117 +2000 C0480 <= +0
 R0317: -10404 C0118 +2000 C0481 <= +0
 R0318: -10404 C0119 +2000 C0482 <= +0
 R0319: -10404 C0120 +2000 C0483 <= +0
 R0320: -10404 C0121 +2000 C0484 <= +0
 R0321: -10404 C0122 +2000 C0485 <= +0
 R0322: -10404 C0123 +2000 C0486 <= +0
 R0323: -10404 C0124 +2000 C0487 <= +0
 R0324: -10404 C0125 +2000 C0488 <= +0
 R0325: -10404 C0126 +2000 C0489 <= +0
 R0326: -10404 C0127 +2000 C0490 <= +0
 R0327: -10404 C0128 +2000 C0491 <= +0
 R0328: -10404 C0129 +2000 C0492 <= +0
 R0329: +1 C0144 -1 C0307 = +0
 R0330: +1 C0158 -1 C0322 = +0
 R0331: +1 C0172 -1 C0336 = +0
 R0332: +1 C0185 -1 C0350 = +0
 R0333: +1 C0198 -1 C0363 = +0
 R0334: +1 C0210 -1 C0376 = +0
 R0335: +1 C0222 -1 C0388 = +0
 R0336: +1 C0235 -1 C0402 = +0
 R0337: +1 C0247 -1 C0415 = +0
 R0338: +1 C0258 -1 C0427 = +0
 R0339: +1 C0268 -1 C0438 = +0
 R0340: +1 C0277 -1 C0448 = +0
 R0341: +1 C0285 -1 C0457 = +0
 R0342: +1 C0292 -1 C0464 = +0
Bounds
 0 <= C0524 <= 1
 0 <= C0001 <= 1
 0 <= C0002 <= 1
 0 <= C0003 <= 1
 0 <= C0004 <= 1
 0 <= C0005 <= 1
 0 <= C0006 <= 1
 0 <= C0007 <= 1
 0 <= C0008 <= 1
 0 <= C0009 <= 1
 0 <= C0010 <= 1
 0 <= C0011 <= 1
 0 <= C0012 <= 1
 0 <= C0013 <= 1
 0 <= C0014 <= 1
 0 <= C0015 <= 1
 0 <= C0016 <= 1
 0 <= C0017 <= 1
 0 <= C0018 <= 1
 0 <= C0019 <= 1
 0 <= C0020 <= 1
 0 <= C0021 <= 1
 0 <= C0022 <= 1
 0 <= C0023 <= 1
 0 <= C0024 <= 1
 0 <= C0025 <= 1
 0 <= C0026 <= 1
 0 <= C0027 <= 1
 0 <= C0028 <= 1
 0 <= C0029 <= 1
 0 <= C0030 <= 1
 0 <= C0031 <= 1
 0 <= C0032 <= 1
 0 <= C0033 <= 1
 0 <= C0034 <= 1
 0 <= C0035 <= 1
 0 <= C0036 <= 1
 0 <= C0037 <= 1
 0 <= C0038 <= 1
 0 <= C0039 <= 1
 0 <= C0040 <= 1
 0 <= C0041 <= 1
 0 <= C0042 <= 1
 0 <= C0043 <= 1
 0 <= C0044 <= 1
 0 <= C0045 <= 1
 0 <= C0046 <= 1
 0 <= C0047 <= 1
 0 <= C0048 <= 1
 0 <= C0049 <= 1
 0 <= C0050 <= 1
 0 <= C0051 <= 1
 0 <= C0052 <= 1
 0 <= C0053 <= 1
 0 <= C0054 <= 1
 0 <= C0055 <= 1
 0 <= C0056 <= 1
 0 <= C0057 <= 1
 0 <= C0058 <= 1
 0 <= C0059 <= 1
 0 <= C0060 <= 1
 0 <= C0061 <= 1
 0 <= C0062 <= 1
 0 <= C0063 <= 1
 0 <= C0064 <= 1
 0 <= C0065 <= 1
 0 <= C0066 <= 1
 0 <= C0067 <= 1
 0 <= C0068 <= 1
 0 <= C0069 <= 1
 0 <= C0070 <= 1
 0 <= C0071 <= 1
 0 <= C0072 <= 1
 0 <= C0073 <= 1
 0 <= C0074 <= 1
 0 <= C0075 <= 1
 0 <= C0076 <= 1
 0 <= C0077 <= 1
 0 <= C0078 <= 1
 0 <= C0079 <= 1
 0 <= C0080 <= 1
 0 <= C0081 <= 1
 0 <= C0082 <= 1
 0 <= C0083 <= 1
 0 <= C0084 <= 1
 0 <= C0085 <= 1
 0 <= C0086 <= 1
 0 <= C0087 <= 1
 0 <= C0088 <= 1
 0 <= C0089 <= 1
 0 <= C0090 <= 1
 0 <= C0091 <= 1
 0 <= C0092 <= 1
 0 <= C0093 <= 1
 0 <= C0094 <= 1
 0 <= C0095 <= 1
 0 <= C0096 <= 1
 0 <= C0097 <= 1
 0 <= C0098 <= 1
 0 <= C0099 <= 1
 0 <= C0100 <= 1
 0 <= C0101 <= 1
 0 <= C0102 <= 1
 0 <= C0103 <= 1
 0 <= C0104 <= 1
 0 <= C0105 <= 1
 0 <= C0106 <= 1
 0 <= C0107 <= 1
 0 <= C0108 <= 1
 0 <= C0109 <= 1
 0 <= C0110 <= 1
 0 <= C0111 <= 1
 0 <= C0112 <= 1
 0 <= C0113 <= 1
 0 <= C0114 <= 1
 0 <= C0115 <= 1
 0 <= C0116 <= 1
 0 <= C0117 <= 1
 0 <= C0118 <= 1
 0 <= C0119 <= 1
 0 <= C0120 <= 1
 0 <= C0121 <= 1
 0 <= C0122 <= 1
 0 <= C0123 <= 1
 0 <= C0124 <= 1
 0 <= C0125 <= 1
 0 <= C0126 <= 1
 0 <= C0127 <= 1
 0 <= C0128 <= 1
 0 <= C0129 <= 1
 0 <= C0507 <= 1
 0 <= C0506 <= 1
 0 <= C0505 <= 1
 0 <= C0504 <= 1
 0 <= C0503 <= 1
 0 <= C0502 <= 1
 0 <= C0501 <= 1
 0 <= C0500 <= 1
 0 <= C0499 <= 1
 0 <= C0498 <= 1
 0 <= C0497 <= 1
 0 <= C0496 <= 1
 0 <= C0495 <= 1
 0 <= C0494 <= 1
 0 <= C0493 <= 1
 0 <= C0508 <= 1
 0 <= C0522 <= 7077
 0 <= C0521 <= 6740
 0 <= C0520 <= 6419
 0 <= C0519 <= 6113
 0 <= C0518 <= 5821
 0 <= C0517 <= 5544
 0 <= C0516 <= 5280
 0 <= C0515 <= 5028
 0 <= C0514 <= 4788
 0 <= C0513 <= 4560
 0 <= C0512 <= 4342
 0 <= C0511 <= 4135
 0 <= C0510 <= 3938
 0 <= C0509 <= 3750
 0 <= C0492 <= 3
 0 <= C0491 <= 3
 0 <= C0490 <= 3
 0 <= C0489 <= 3
 0 <= C0488 <= 3
 0 <= C0487 <= 2
 0 <= C0486 <= 2
 0 <= C0485 <= 2
 0 <= C0484 <= 2
 0 <= C0483 <= 2
 0 <= C0482 <= 2
 0 <= C0481 <= 2
 0 <= C0480 <= 2
 0 <= C0479 <= 4
 0 <= C0478 <= 4
 0 <= C0477 <= 4
 0 <= C0476 <= 4
 0 <= C0475 <= 4
 0 <= C0474 <= 4
 0 <= C0473 <= 4
 0 <= C0472 <= 4
 0 <= C0471 <= 4
 0 <= C0470 <= 4
 0 <= C0469 <= 4
 0 <= C0468 <= 4
 0 <= C0467 <= 4
 0 <= C0466 <= 4
 0 <= C0465 <= 11
 0 <= C0464 <= 2
 0 <= C0463 <= 2
 0 <= C0462 <= 2
 0 <= C0461 <= 2
 0 <= C0460 <= 2
 0 <= C0459 <= 2
 0 <= C0458 <= 2
 0 <= C0457 <= 2
 0 <= C0456 <= 2
 0 <= C0455 <= 2
 0 <= C0454 <= 2
 0 <= C0453 <= 2
 0 <= C0452 <= 2
 0 <= C0451 <= 2
 0 <= C0450 <= 2
 3 <= C0449 <= 4
 0 <= C0448 <= 3
 0 <= C0447 <= 2
 0 <= C0446 <= 2
 0 <= C0445 <= 2
 0 <= C0444 <= 2
 0 <= C0443 <= 2
 0 <= C0442 <= 2
 0 <= C0441 <= 2
 0 <= C0440 <= 2
 2 <= C0439 <= 3
 0 <= C0438 <= 3
 0 <= C0437 <= 3
 0 <= C0436 <= 2
 0 <= C0435 <= 2
 0 <= C0434 <= 2
 0 <= C0433 <= 2
 0 <= C0432 <= 2
 0 <= C0431 <= 2
 0 <= C0430 <= 2
 0 <= C0429 <= 2
 1 <= C0428 <= 2
 0 <= C0427 <= 3
 0 <= C0426 <= 3
 0 <= C0425 <= 3
 0 <= C0424 <= 2
 0 <= C0423 <= 2
 0 <= C0422 <= 2
 0 <= C0421 <= 2
 0 <= C0420 <= 2
 0 <= C0419 <= 2
 0 <= C0418 <= 2
 0 <= C0417 <= 2
 3 <= C0416 <= 4
 0 <= C0415 <= 3
 0 <= C0414 <= 3
 0 <= C0413 <= 3
 0 <= C0412 <= 3
 0 <= C0411 <= 2
 0 <= C0410 <= 2
 0 <= C0409 <= 2
 0 <= C0408 <= 2
 0 <= C0407 <= 2
 0 <= C0406 <= 2
 0 <= C0405 <= 2
 0 <= C0404 <= 2
 2 <= C0403 <= 3
 0 <= C0402 <= 3
 0 <= C0401 <= 3
 0 <= C0400 <= 3
 0 <= C0399 <= 3
 0 <= C0398 <= 3
 0 <= C0397 <= 2
 0 <= C0396 <= 2
 0 <= C0395 <= 2
 0 <= C0394 <= 2
 0 <= C0393 <= 2
 0 <= C0392 <= 2
 0 <= C0391 <= 2
 0 <= C0390 <= 2
 1 <= C0389 <= 2
 0 <= C0388 <= 4
 0 <= C0387 <= 4
 0 <= C0386 <= 4
 0 <= C0385 <= 4
 0 <= C0384 <= 4
 0 <= C0383 <= 4
 0 <= C0382 <= 4
 0 <= C0381 <= 4
 0 <= C0380 <= 11
 0 <= C0379 <= 2
 0 <= C0378 <= 2
 0 <= C0377 <= 2
 0 <= C0376 <= 4
 0 <= C0375 <= 4
 0 <= C0374 <= 4
 0 <= C0373 <= 4
 0 <= C0372 <= 4
 0 <= C0371 <= 4
 0 <= C0370 <= 4
 0 <= C0369 <= 4
 0 <= C0368 <= 4
 0 <= C0367 <= 11
 0 <= C0366 <= 2
 0 <= C0365 <= 2
 0 <= C0364 <= 2
 0 <= C0363 <= 4
 0 <= C0362 <= 4
 0 <= C0361 <= 4
 0 <= C0360 <= 4
 0 <= C0359 <= 4
 0 <= C0358 <= 4
 0 <= C0357 <= 4
 0 <= C0356 <= 4
 0 <= C0355 <= 4
 0 <= C0354 <= 4
 0 <= C0353 <= 11
 0 <= C0352 <= 2
 0 <= C0351 <= 2
 0 <= C0350 <= 4
 0 <= C0349 <= 4
 0 <= C0348 <= 4
 0 <= C0347 <= 4
 0 <= C0346 <= 4
 0 <= C0345 <= 4
 0 <= C0344 <= 4
 0 <= C0343 <= 4
 0 <= C0342 <= 4
 0 <= C0341 <= 4
 0 <= C0340 <= 4
 0 <= C0339 <= 11
 0 <= C0338 <= 2
 0 <= C0337 <= 2
 0 <= C0336 <= 4
 0 <= C0335 <= 4
 0 <= C0334 <= 4
 0 <= C0333 <= 4
 0 <= C0332 <= 4
 0 <= C0331 <= 4
 0 <= C0330 <= 4
 0 <= C0329 <= 4
 0 <= C0328 <= 4
 0 <= C0327 <= 4
 0 <= C0326 <= 4
 0 <= C0325 <= 4
 0 <= C0324 <= 11
 0 <= C0323 <= 2
 0 <= C0322 <= 4
 0 <= C0321 <= 4
 0 <= C0320 <= 4
 0 <= C0319 <= 4
 0 <= C0318 <= 4
 0 <= C0317 <= 4
 0 <= C0316 <= 4
 0 <= C0315 <= 4
 0 <= C0314 <= 4
 0 <= C0313 <= 4
 0 <= C0312 <= 4
 0 <= C0311 <= 4
 0 <= C0310 <= 4
 0 <= C0309 <= 11
 0 <= C0308 <= 2
 0 <= C0307 <= 4
 0 <= C0306 <= 4
 0 <= C0305 <= 4
 0 <= C0304 <= 4
 0 <= C0303 <= 4
 0 <= C0302 <= 4
 0 <= C0301 <= 4
 0 <= C0300 <= 4
 0 <= C0299 <= 4
 0 <= C0298 <= 4
 0 <= C0297 <= 4
 0 <= C0296 <= 4
 0 <= C0295 <= 4
 0 <= C0294 <= 4
 0 <= C0293 <= 11
 0 <= C0292 <= 2
 0 <= C0291 <= 2
 0 <= C0290 <= 2
 0 <= C0289 <= 2
 0 <= C0288 <= 2
 0 <= C0287 <= 2
 0 <= C0286 <= 2
 0 <= C0285 <= 2
 0 <= C0284 <= 2
 0 <= C0283 <= 2
 0 <= C0282 <= 2
 0 <= C0281 <= 2
 0 <= C0280 <= 2
 0 <= C0279 <= 2
 0 <= C0278 <= 2
 0 <= C0277 <= 3
 0 <= C0276 <= 2
 0 <= C0275 <= 2
 0 <= C0274 <= 2
 0 <= C0273 <= 2
 0 <= C0272 <= 2
 0 <= C0271 <= 2
 0 <= C0270 <= 2
 0 <= C0269 <= 2
 0 <= C0268 <= 3
 0 <= C0267 <= 3
 0 <= C0266 <= 2
 0 <= C0265 <= 2
 0 <= C0264 <= 2
 0 <= C0263 <= 2
 0 <= C0262 <= 2
 0 <= C0261 <= 2
 0 <= C0260 <= 2
 0 <= C0259 <= 2
 0 <= C0258 <= 3
 0 <= C0257 <= 3
 0 <= C0256 <= 3
 0 <= C0255 <= 2
 0 <= C0254 <= 2
 0 <= C0253 <= 2
 0 <= C0252 <= 2
 0 <= C0251 <= 2
 0 <= C0250 <= 2
 0 <= C0249 <= 2
 0 <= C0248 <= 2
 0 <= C0247 <= 3
 0 <= C0246 <= 3
 0 <= C0245 <= 3
 0 <= C0244 <= 3
 0 <= C0243 <= 2
 0 <= C0242 <= 2
 0 <= C0241 <= 2
 0 <= C0240 <= 2
 0 <= C0239 <= 2
 0 <= C0238 <= 2
 0 <= C0237 <= 2
 0 <= C0236 <= 2
 0 <= C0235 <= 3
 0 <= C0234 <= 3
 0 <= C0233 <= 3
 0 <= C0232 <= 3
 0 <= C0231 <= 3
 0 <= C0230 <= 2
 0 <= C0229 <= 2
 0 <= C0228 <= 2
 0 <= C0227 <= 2
 0 <= C0226 <= 2
 0 <= C0225 <= 2
 0 <= C0224 <= 2
 0 <= C0223 <= 2
 0 <= C0222 <= 4
 0 <= C0221 <= 4
 0 <= C0220 <= 4
 0 <= C0219 <= 4
 0 <= C0218 <= 4
 0 <= C0217 <= 4
 0 <= C0216 <= 4
 0 <= C0215 <= 4
 0 <= C0214 <= 11
 0 <= C0213 <= 2
 0 <= C0212 <= 2
 0 <= C0211 <= 2
 0 <= C0210 <= 4
 0 <= C0209 <= 4
 0 <= C0208 <= 4
 0 <= C0207 <= 4
 0 <= C0206 <= 4
 0 <= C0205 <= 4
 0 <= C0204 <= 4
 0 <= C0203 <= 4
 0 <= C0202 <= 4
 0 <= C0201 <= 11
 0 <= C0200 <= 2
 0 <= C0199 <= 2
 0 <= C0198 <= 4
 0 <= C0197 <= 4
 0 <= C0196 <= 4
 0 <= C0195 <= 4
 0 <= C0194 <= 4
 0 <= C0193 <= 4
 0 <= C0192 <= 4
 0 <= C0191 <= 4
 0 <= C0190 <= 4
 0 <= C0189 <= 4
 0 <= C0188 <= 11
 0 <= C0187 <= 2
 0 <= C0186 <= 2
 0 <= C0185 <= 4
 0 <= C0184 <= 4
 0 <= C0183 <= 4
 0 <= C0182 <= 4
 0 <= C0181 <= 4
 0 <= C0180 <= 4
 0 <= C0179 <= 4
 0 <= C0178 <= 4
 0 <= C0177 <= 4
 0 <= C0176 <= 4
 0 <= C0175 <= 4
 0 <= C0174 <= 11
 0 <= C0173 <= 2
 0 <= C0172 <= 4
 0 <= C0171 <= 4
 0 <= C0170 <= 4
 0 <= C0169 <= 4
 0 <= C0168 <= 4
 0 <= C0167 <= 4
 0 <= C0166 <= 4
 0 <= C0165 <= 4
 0 <= C0164 <= 4
 0 <= C0163 <= 4
 0 <= C0162 <= 4
 0 <= C0161 <= 4
 0 <= C0160 <= 11
 0 <= C0159 <= 2
 0 <= C0158 <= 4
 0 <= C0157 <= 4
 0 <= C0156 <= 4
 0 <= C0155 <= 4
 0 <= C0154 <= 4
 0 <= C0153 <= 4
 0 <= C0152 <= 4
 0 <= C0151 <= 4
 0 <= C0150 <= 4
 0 <= C0149 <= 4
 0 <= C0148 <= 4
 0 <= C0147 <= 4
 0 <= C0146 <= 4
 0 <= C0145 <= 11
 0 <= C0144 <= 4
 0 <= C0143 <= 4
 0 <= C0142 <= 4
 0 <= C0141 <= 4
 0 <= C0140 <= 4
 0 <= C0139 <= 4
 0 <= C0138 <= 4
 0 <= C0137 <= 4
 0 <= C0136 <= 4
 0 <= C0135 <= 4
 0 <= C0134 <= 4
 0 <= C0133 <= 4
 0 <= C0132 <= 4
 0 <= C0131 <= 4
 0 <= C0130 <= 11
 0 <= C0523 <= 7431
Binaries
 C0524 C0001 C0002 C0003 C0004 C0005 C0006 C0007 C0008 C0009 C0010 C0011 C0012 C0013 C0014 C0015 C0016
 C0017 C0018 C0019 C0020 C0021 C0022 C0023 C0024 C0025 C0026 C0027 C0028 C0029 C0030 C0031 C0032 C0033
 C0034 C0035 C0036 C0037 C0038 C0039 C0040 C0041 C0042 C0043 C0044 C0045 C0046 C0047 C0048 C0049 C0050
 C0051 C0052 C0053 C0054 C0055 C0056 C0057 C0058 C0059 C0060 C0061 C0062 C0063 C0064 C0065 C0066 C0067
 C0068 C0069 C0070 C0071 C0072 C0073 C0074 C0075 C0076 C0077 C0078 C0079 C0080 C0081 C0082 C0083 C0084
 C0085 C0086 C0087 C0088 C0089 C0090 C0091 C0092 C0093 C0094 C0095 C0096 C0097 C0098 C0099 C0100 C0101
 C0102 C0103 C0104 C0105 C0106 C0107 C0108 C0109 C0110 C0111 C0112 C0113 C0114 C0115 C0116 C0117 C0118
 C0119 C0120 C0121 C0122 C0123 C0124 C0125 C0126 C0127 C0128 C0129 C0507 C0506 C0505 C0504 C0503 C0502
 C0501 C0500 C0499 C0498 C0497 C0496 C0495 C0494 C0493 C0508
Generals
 C0522 C0521 C0520 C0519 C0518 C0517 C0516 C0515 C0514 C0513 C0512 C0511 C0510 C0509 C0492 C0491 C0490
 C0489 C0488 C0487 C0486 C0485 C0484 C0483 C0482 C0481 C0480 C0479 C0478 C0477 C0476 C0475 C0474 C0473
 C0472 C0471 C0470 C0469 C0468 C0467 C0466 C0465 C0464 C0463 C0462 C0461 C0460 C0459 C0458 C0457 C0456
 C0455 C0454 C0453 C0452 C0451 C0450 C0449 C0448 C0447 C0446 C0445 C0444 C0443 C0442 C0441 C0440 C0439
 C0438 C0437 C0436 C0435 C0434 C0433 C0432 C0431 C0430 C0429 C0428 C0427 C0426 C0425 C0424 C0423 C0422
 C0421 C0420 C0419 C0418 C0417 C0416 C0415 C0414 C0413 C0412 C0411 C0410 C0409 C0408 C0407 C0406 C0405
 C0404 C0403 C0402 C0401 C0400 C0399 C0398 C0397 C0396 C0395 C0394 C0393 C0392 C0391 C0390 C0389 C0388
 C0387 C0386 C0385 C0384 C0383 C0382 C0381 C0380 C0379 C0378 C0377 C0376 C0375 C0374 C0373 C0372 C0371
 C0370 C0369 C0368 C0367 C0366 C0365 C0364 C0363 C0362 C0361 C0360 C0359 C0358 C0357 C0356 C0355 C0354
 C0353 C0352 C0351 C0350 C0349 C0348 C0347 C0346 C0345 C0344 C0343 C0342 C0341 C0340 C0339 C0338 C0337
 C0336 C0335 C0334 C0333 C0332 C0331 C0330 C0329 C0328 C0327 C0326 C0325 C0324 C0323 C0322 C0321 C0320
 C0319 C0318 C0317 C0316 C0315 C0314 C0313 C0312 C0311 C0310 C0309 C0308 C0307 C0306 C0305 C0304 C0303
 C0302 C0301 C0300 C0299 C0298 C0297 C0296 C0295 C0294 C0293 C0292 C0291 C0290 C0289 C0288 C0287 C0286
 C0285 C0284 C0283 C0282 C0281 C0280 C0279 C0278 C0277 C0276 C0275 C0274 C0273 C0272 C0271 C0270 C0269
 C0268 C0267 C0266 C0265 C0264 C0263 C0262 C0261 C0260 C0259 C0258 C0257 C0256 C0255 C0254 C0253 C0252
 C0251 C0250 C0249 C0248 C0247 C0246 C0245 C0244 C0243 C0242 C0241 C0240 C0239 C0238 C0237 C0236 C0235
 C0234 C0233 C0232 C0231 C0230 C0229 C0228 C0227 C0226 C0225 C0224 C0223 C0222 C0221 C0220 C0219 C0218
 C0217 C0216 C0215 C0214 C0213 C0212 C0211 C0210 C0209 C0208 C0207 C0206 C0205 C0204 C0203 C0202 C0201
 C0200 C0199 C0198 C0197 C0196 C0195 C0194 C0193 C0192 C0191 C0190 C0189 C0188 C0187 C0186 C0185 C0184
 C0183 C0182 C0181 C0180 C0179 C0178 C0177 C0176 C0175 C0174 C0173 C0172 C0171 C0170 C0169 C0168 C0167
 C0166 C0165 C0164 C0163 C0162 C0161 C0160 C0159 C0158 C0157 C0156 C0155 C0154 C0153 C0152 C0151 C0150
 C0149 C0148 C0147 C0146 C0145 C0144 C0143 C0142 C0141 C0140 C0139 C0138 C0137 C0136 C0135 C0134 C0133
 C0132 C0131 C0130 C0523
End
